TCS_Benchmarks/redos_fix/corpus3_output_distinct_2996_2995_1_0.txt
(([a-z_]+\/){0,2})([a-z_]+)
(([a-z_]+\/){0,2})([a-z_]+)